c description: Random 3-CNF over 23 variables and 98 clauses
c generator: CNFgen (0.9.2)
c copyright: (C) 2012-2022 Massimo Lauria <massimo.lauria@uniroma1.it>
c url: https://massimolauria.net/cnfgen
c command line: cnfgen --output CNF_4.28/23_bit_98_178.cnf randkcnf 3 23 98
c
p cnf 23 98
-1 -16 -22 0
-1 11 17 0
-12 15 16 0
-10 19 -21 0
-2 -18 23 0
6 -7 -19 0
7 9 -15 0
-3 20 23 0
-4 -5 15 0
4 13 16 0
-8 16 -18 0
-3 -14 17 0
-2 -11 -12 0
5 -10 -11 0
5 18 -23 0
-8 16 21 0
4 -5 10 0
10 12 -16 0
-14 16 -19 0
-10 -12 -23 0
6 -8 -17 0
1 6 -8 0
10 13 -18 0
5 10 17 0
-4 12 -23 0
-7 13 21 0
-2 -6 8 0
-6 -10 23 0
1 -9 13 0
-7 -14 17 0
8 -9 11 0
3 -14 16 0
-4 12 19 0
-3 -8 -9 0
8 -11 20 0
8 12 21 0
-2 5 -12 0
5 -6 -14 0
1 9 -19 0
1 -2 -3 0
-4 6 -14 0
-3 -17 -22 0
3 6 18 0
-7 -11 16 0
4 -18 22 0
18 -19 -23 0
14 15 23 0
14 18 21 0
-1 -13 18 0
-2 -5 13 0
2 -5 -10 0
4 8 14 0
1 15 18 0
11 12 -22 0
-4 -5 -15 0
-8 11 17 0
5 9 -15 0
-12 17 18 0
16 -20 -22 0
2 -17 -23 0
-11 -20 21 0
-10 -12 -21 0
-5 8 -18 0
-9 10 -20 0
4 15 19 0
-2 16 21 0
-8 13 18 0
-10 13 -17 0
-3 -6 7 0
6 17 20 0
-3 4 10 0
3 4 -19 0
-3 12 17 0
3 -12 20 0
1 -8 11 0
1 -5 -18 0
12 14 -17 0
-15 16 -19 0
-8 13 19 0
-2 8 -9 0
-12 17 19 0
2 4 5 0
-9 -11 20 0
3 -7 17 0
-2 -11 -14 0
6 7 -20 0
11 -12 -22 0
-14 -15 -18 0
-4 15 -19 0
-15 20 -22 0
-1 -7 -17 0
2 9 -19 0
1 -16 -21 0
-4 -10 -17 0
8 17 19 0
8 9 21 0
2 16 -20 0
-3 4 11 0
